(set-info :smt-lib-version 2.6)
(set-logic QF_NIA)
(set-info :source |
Generated by: Cristina Borralleras, Daniel Larraz, Albert Oliveras, Enric Rodriguez-Carbonell, Albert Rubio
Generated on: 2017-04-27
Generator: VeryMax
Application: Termination proving
Target solver: barcelogic
|)
(set-info :license "https://creativecommons.org/licenses/by/4.0/")
(set-info :category "industrial")
(set-info :status unsat)
(declare-fun Nl11main_i1 () Int)
(declare-fun Nl11main_j1 () Int)
(declare-fun Nl11main_k1 () Int)
(declare-fun Nl11main_l1 () Int)
(declare-fun Nl11main_a1 () Int)
(declare-fun Nl11main_b1 () Int)
(declare-fun lam0n0 () Int)
(declare-fun lam0n1 () Int)
(declare-fun lam0n2 () Int)
(declare-fun lam0n3 () Int)
(declare-fun Nl11CT1 () Int)
(declare-fun main_i () Int)
(declare-fun main_j () Int)
(declare-fun main_a () Int)
(declare-fun lam1n0 () Int)
(declare-fun lam1n1 () Int)
(declare-fun lam1n2 () Int)
(declare-fun lam1n3 () Int)
(declare-fun lam2n0 () Int)
(declare-fun lam2n1 () Int)
(declare-fun lam2n2 () Int)
(declare-fun lam2n3 () Int)
(assert ( and ( <= ( - 1 ) Nl11main_i1 ) ( <= Nl11main_i1 1 ) ( <= ( - 1 ) Nl11main_j1 ) ( <= Nl11main_j1 1 ) ( <= ( - 1 ) Nl11main_k1 ) ( <= Nl11main_k1 1 ) ( <= ( - 1 ) Nl11main_l1 ) ( <= Nl11main_l1 1 ) ( <= ( - 1 ) Nl11main_a1 ) ( <= Nl11main_a1 1 ) ( <= ( - 1 ) Nl11main_b1 ) ( <= Nl11main_b1 1 ) ))
(assert ( and ( <= ( + 1 main_i ( * ( - 1 ) main_j ) ( * ( - 1 ) main_a ) ) 0 ) ( <= ( + 1 main_j ( * ( - 1 ) main_a ) ) 0 ) ( <= ( + ( - 3 ) ( * ( - 1 ) main_i ) ( * ( - 1 ) main_j ) ) 0 ) ( <= ( + ( - 2 ) ( * ( - 1 ) main_i ) main_a ) 0 ) ( <= ( + ( + ( + ( + Nl11CT1 ( * Nl11main_k1 3 ) ) ( * Nl11main_l1 0 ) ) ( * Nl11main_b1 7 ) ) ( * ( + ( + ( + 0 Nl11main_i1 ) ( * Nl11main_k1 1 ) ) ( * Nl11main_b1 2 ) ) main_i ) ( * ( + ( + ( + 0 Nl11main_j1 ) ( * Nl11main_k1 1 ) ) ( * Nl11main_b1 2 ) ) main_j ) ( * ( + 0 Nl11main_a1 ) main_a ) ) 0 ) ))
(assert ( or ( or ( and ( >= lam1n0 0 ) ( >= lam1n1 0 ) ( >= lam1n2 0 ) ( >= lam1n3 0 ) ( > ( + ( * 1 lam1n0 ) ( * ( - 1 ) lam1n1 ) ( * ( - 4 ) lam1n2 ) ( * Nl11CT1 lam1n3 ) ( - 1 ) ) 0 ) ( = ( + ( * ( - 1 ) lam1n2 ) ( * Nl11main_i1 lam1n3 ) ) 0 ) ( = ( + ( * ( - 1 ) lam1n2 ) ( * Nl11main_j1 lam1n3 ) ) 0 ) ( = ( + ( * ( - 1 ) lam1n2 ) ( * Nl11main_k1 lam1n3 ) ) 0 ) ( = ( + ( * 1 lam1n0 ) ( * 1 lam1n1 ) ( * ( - 2 ) lam1n2 ) ( * Nl11main_l1 lam1n3 ) ) 0 ) ( = ( + ( * ( - 1 ) lam1n1 ) ( * Nl11main_a1 lam1n3 ) ) 0 ) ( = ( + ( * ( - 1 ) lam1n0 ) ( * ( - 1 ) lam1n1 ) ( * 1 lam1n2 ) ( * Nl11main_b1 lam1n3 ) ) 0 ) ) ( and ( >= lam2n0 0 ) ( >= lam2n1 0 ) ( >= lam2n2 0 ) ( >= lam2n3 0 ) ( > ( + ( * 1 lam2n0 ) ( * ( - 1 ) lam2n1 ) ( * ( - 4 ) lam2n2 ) ( * Nl11CT1 lam2n3 ) ( - 1000 ) ) 0 ) ( = ( + ( * ( - 1 ) lam2n2 ) ( * Nl11main_i1 lam2n3 ) ( - 1 ) ) 0 ) ( = ( + ( * ( - 1 ) lam2n2 ) ( * Nl11main_j1 lam2n3 ) ( - 1 ) ) 0 ) ( = ( + ( * ( - 1 ) lam2n2 ) ( * Nl11main_k1 lam2n3 ) ( - 1 ) ) 0 ) ( = ( + ( * 1 lam2n0 ) ( * 1 lam2n1 ) ( * ( - 2 ) lam2n2 ) ( * Nl11main_l1 lam2n3 ) ( - 1 ) ) 0 ) ( = ( + ( * ( - 1 ) lam2n1 ) ( * Nl11main_a1 lam2n3 ) ) 0 ) ( = ( + ( * ( - 1 ) lam2n0 ) ( * ( - 1 ) lam2n1 ) ( * 1 lam2n2 ) ( * Nl11main_b1 lam2n3 ) ) 0 ) ) ) ( and ( and ( <= ( + 1 main_i ( * ( - 1 ) main_j ) ( * ( - 1 ) main_a ) ) 0 ) ( <= ( + 1 main_j ( * ( - 1 ) main_a ) ) 0 ) ( <= ( + ( - 3 ) ( * ( - 1 ) main_i ) ( * ( - 1 ) main_j ) ) 0 ) ( <= ( + ( - 2 ) ( * ( - 1 ) main_i ) main_a ) 0 ) ( <= ( + ( + ( + ( + Nl11CT1 ( * Nl11main_k1 3 ) ) ( * Nl11main_l1 0 ) ) ( * Nl11main_b1 7 ) ) ( * ( + ( + ( + 0 Nl11main_i1 ) ( * Nl11main_k1 1 ) ) ( * Nl11main_b1 2 ) ) main_i ) ( * ( + ( + ( + 0 Nl11main_j1 ) ( * Nl11main_k1 1 ) ) ( * Nl11main_b1 2 ) ) main_j ) ( * ( + 0 Nl11main_a1 ) main_a ) ) 0 ) ) false ) ))
(check-sat)
(exit)
